
Log started (V12.10.0.0) Fri Apr  2 17:16:13 2021


Problem 'asset.lp' read.
Read time = 0.01 sec. (0.29 ticks)
New value for default parallel thread count: 1
New value for time limit in seconds: 300
Version identifier: 12.10.0.0 | 2019-11-26 | 843d4de
CPXPARAM_Threads                                 1
CPXPARAM_TimeLimit                               300
Found incumbent of value -0.890376 after 0.00 sec. (0.13 ticks)
Tried aggregator 3 times.
MIP Presolve eliminated 1085 rows and 769 columns.
MIP Presolve modified 2543 coefficients.
Aggregator did 624 substitutions.
Reduced MIP has 965 rows, 1003 columns, and 4479 nonzeros.
Reduced MIP has 823 binaries, 136 generals, 0 SOSs, and 0 indicators.
Presolve time = 0.01 sec. (8.50 ticks)
Probing fixed 355 vars, tightened 65 bounds.
Probing time = 0.01 sec. (3.34 ticks)
Cover probing fixed 0 vars, tightened 124 bounds.
Tried aggregator 1 time.
MIP Presolve eliminated 510 rows and 498 columns.
MIP Presolve modified 48 coefficients.
Reduced MIP has 455 rows, 495 columns, and 1678 nonzeros.
Reduced MIP has 390 binaries, 61 generals, 0 SOSs, and 0 indicators.
Presolve time = 0.00 sec. (2.02 ticks)
Probing time = 0.00 sec. (1.07 ticks)
Tried aggregator 1 time.
Detecting symmetries...
MIP Presolve modified 102 coefficients.
Reduced MIP has 455 rows, 495 columns, and 1678 nonzeros.
Reduced MIP has 390 binaries, 61 generals, 0 SOSs, and 0 indicators.
Presolve time = 0.00 sec. (1.18 ticks)
Probing time = 0.00 sec. (1.07 ticks)
Clique table members: 1249.
MIP emphasis: balance optimality and feasibility.
MIP search method: dynamic search.
Parallel mode: none, using 1 thread.
Root relaxation solution time = 0.00 sec. (3.14 ticks)

        Nodes                                         Cuts/
   Node  Left     Objective  IInf  Best Integer    Best Bound    ItCnt     Gap

*     0+    0                           -0.8904      461.8296              --- 
      0     0      226.7929    92       -0.8904      226.7929      278     --- 
      0     0      217.7196    92       -0.8904     Cuts: 174      404     --- 
      0     0      215.7655    92       -0.8904      Cuts: 75      455     --- 
      0     0      215.2468    92       -0.8904      Cuts: 41      481     --- 
      0     0      215.1920    92       -0.8904      Cuts: 22      498     --- 
      0     0      215.1358    92       -0.8904      Cuts: 22      523     --- 
Detecting symmetries...
      0     0      214.5585    92       -0.8904      Cuts: 42      550     --- 
      0     0      214.2470    92       -0.8904      Cuts: 46      587     --- 
      0     0      214.2214    92       -0.8904      Cuts: 35      608     --- 
      0     0      213.6546    92       -0.8904      Cuts: 17      654     --- 
      0     0      213.5206    92       -0.8904      Cuts: 48      701     --- 
      0     0      213.4269    92       -0.8904      Cuts: 54      728     --- 
      0     0      213.3896    92       -0.8904      Cuts: 38      764     --- 
      0     0      213.3736    92       -0.8904      Cuts: 34      797     --- 
      0     0      213.3382    92       -0.8904      Cuts: 14      841     --- 
      0     0      213.2650    92       -0.8904      Cuts: 50      903     --- 
      0     0      213.2468    92       -0.8904      Cuts: 24      917     --- 
*     0+    0                          178.7712      213.2468            19.28%
*     0+    0                          178.7714      213.2468            19.28%
      0     0        cutoff            178.7714      213.2468      917   19.28%
Detecting symmetries...
      0     2      213.2468   114      178.7714      213.2323      917   19.28%
Elapsed time = 0.14 sec. (119.98 ticks, tree = 0.01 MB, solutions = 2)
*    50+   40                          185.0612      213.0439            15.12%
*    92    78      integral     0      185.4661      213.0439     3929   14.87%
*   192+  132                          193.9323      212.6373             9.65%
*   220+  138                          195.7146      212.1931             8.42%
    257   159      197.3559    43      195.7146      212.0674     8683    8.36%
*   320+  195                          195.7163      211.7027             8.17%
    509   304        cutoff            195.7163      209.6469    16812    7.12%
    674   353      204.5363    85      195.7163      207.8585    23848    6.20%
    856   403        cutoff            195.7163      206.4717    31005    5.50%
*  1020   430      integral     0      195.7732      205.5847    36810    5.01%
   1047   434      204.9584    57      195.7732      205.4597    37858    4.95%
*  1120+  432                          195.7732      205.2804             4.86%
   1236   431      198.3418    85      195.7732      204.2359    45297    4.32%
   1432   434        cutoff            195.7732      203.2217    52391    3.80%
   1664   397      196.3570    10      195.7732      201.8943    60073    3.13%
   1923   310      196.9680    63      195.7732      200.3324    67442    2.33%

GUB cover cuts applied:  1
Clique cuts applied:  33
Cover cuts applied:  5
Implied bound cuts applied:  198
Flow cuts applied:  5
Mixed integer rounding cuts applied:  25
Zero-half cuts applied:  27
Lift and project cuts applied:  2

Root node processing (before b&c):
  Real time             =    0.14 sec. (120.16 ticks)
Sequential b&c:
  Real time             =    2.18 sec. (2370.84 ticks)
                          ------------
Total (root+branch&cut) =    2.32 sec. (2491.00 ticks)

Solution pool: 10 solutions saved.

MIP - Integer optimal solution:  Objective =  1.9577322454e+02
Solution time =    2.32 sec.  Iterations = 73188  Nodes = 2334
Deterministic time = 2491.01 ticks  (1073.08 ticks/sec)


Incumbent solution
Variable Name           Solution Value
F                           200.000000
f1                            0.906775
f2                            3.320000
y175                          1.000000
y200                          1.000000
y188                          1.000000
y39                           1.000000
y205                          1.000000
y69                           1.000000
y150                          1.000000
y177                          1.000000
y232                          1.000000
y140                          1.000000
y10                           1.000000
y271                          1.000000
s24                           6.000000
s26                           6.000000
s38                           6.000000
s47                           6.000000
s52                           6.000000
s77                           6.000000
s108                          6.000000
s121                          6.000000
s129                          6.000000
s135                          6.000000
s163                          6.000000
s181                          6.000000
s184                          6.000000
s186                          6.000000
s209                          6.000000
s235                          6.000000
s236                          6.000000
s276                          6.000000
s282                          6.000000
s132                          6.030000
s70                           6.110000
s55                           6.140000
s44                           6.160000
s245                          6.170000
s21                           6.220000
s287                          6.220000
s37                           6.230000
s175                          6.914628
s176                          6.270000
s120                          6.280000
s250                          6.280000
s119                          6.290000
s167                          6.330000
s290                          6.380000
s13                           6.400000
s219                          6.410000
s57                           6.540000
s192                          6.630000
s204                          6.690000
s246                          6.730000
s17                           6.740000
s200                          7.061397
s188                          6.907183
s99                           6.850000
s174                          6.850000
s39                           6.914535
s205                          7.734165
s253                          6.870000
s67                           6.890000
s69                           6.951987
s150                          6.930000
s158                          6.950000
s273                          6.950000
s177                          7.944350
s232                          7.973068
s140                          7.956699
s10                           7.958284
s271                          7.966812
x242x200x1                    1.000000
x258x200x1                    1.000000
x258x39x1                     1.000000
x63x232x1                     1.000000
x23x69x2                      1.000000
x23x150x2                     1.000000
x148x205x2                    1.000000
x169x39x2                     1.000000
x227x175x2                    2.000000
x242x140x3                    1.000000
x239x69x3                     1.000000
x239x150x3                    1.000000
x148x205x3                    1.000000
x75x188x3                     2.000000
x63x177x3                     1.000000
x175x0x2                      2.000000
x200x0x1                      2.000000
x188x271x3                    2.000000
x39x177x1                     1.000000
x39x140x2                     1.000000
x205x0x2                      1.000000
x205x0x3                      1.000000
x69x0x2                       1.000000
x69x232x3                     1.000000
x150x10x2                     1.000000
x150x10x3                     1.000000
x177x0x1                      1.000000
x177x0x3                      1.000000
x232x0x1                      1.000000
x232x0x3                      1.000000
x140x0x2                      1.000000
x140x0x3                      1.000000
x10x0x2                       1.000000
x10x0x3                       1.000000
x271x0x3                      2.000000
s242                          5.117107
z242z200z1                    1.000000
z242z140z3                    1.000000
s239                          5.416735
z239z69z3                     1.000000
z239z150z3                    1.000000
z239z271z3                    1.000000
s23                           5.311308
z23z69z2                      1.000000
z23z150z2                     1.000000
s148                          5.799595
z148z205z2                    1.000000
z148z205z3                    1.000000
s169                          4.582460
z169z39z2                     1.000000
z169z253z2                    1.000000
s258                          4.861150
z258z200z1                    1.000000
z258z39z1                     1.000000
s75                           4.907870
z75z188z3                     1.000000
z75z271z3                     1.000000
s227                          5.047330
z227z175z2                    1.000000
s63                           5.043480
z63z177z3                     1.000000
z63z232z1                     1.000000
z188z271z3                    1.000000
z39z177z1                     1.000000
z39z140z2                     1.000000
z69z232z3                     1.000000
z150z10z2                     1.000000
z150z10z3                     1.000000
All other variables in the range 1-2397 are 0.
